(set-logic ALL)
(set-option :fmf-bound true)
(set-option :produce-models true)
(declare-sort Object 0)

(declare-fun var1 (Bool) Bool)
(declare-fun var148 (Bool) Bool)
(declare-fun var206 (Bool) Bool)
(declare-fun var9 (Bool) Bool)
(declare-fun var300 (Bool) Bool)
(declare-fun var314 (Bool) Bool)
(declare-fun var216 (Bool) Bool)
(declare-fun var159 (Bool) Bool)
(declare-fun var25 (Bool) Bool)
(declare-fun var65 (Bool) Bool)
(declare-fun var137 (Bool) Bool)
(declare-fun var91 (Bool) Bool)
(declare-fun var77 (Bool) Bool)
(declare-fun var352 (Bool) Bool)
(declare-fun var260 (Bool) Bool)
(declare-fun var167 (Bool) Bool)
(declare-fun var72 (Bool) Bool)
(declare-fun var48 (Bool) Bool)
(declare-fun var189 (Bool) Bool)
(declare-fun var339 (Bool) Bool)
(declare-fun var71 (Bool) Bool)
(declare-fun var115 (Bool) Bool)
(declare-fun var252 (Bool) Bool)
(declare-fun var367 (Bool) Bool)
(declare-fun var131 (Bool) Bool)
(declare-fun var44 (Bool) Bool)
(declare-fun var67 (Bool) Bool)
(declare-fun var33 (Bool) Bool)
(declare-fun var76 (Bool) Bool)
(declare-fun var351 (Bool) Bool)
(declare-fun var28 (Bool) Bool)
(declare-fun var5 (Bool) Bool)
(declare-fun var315 (Bool) Bool)
(declare-fun var21 (Bool) Bool)
(declare-fun var69 (Bool) Bool)
(declare-fun var59 (Bool) Bool)
(declare-fun var198 (Bool) Bool)
(declare-fun var83 (Bool) Bool)
(declare-fun var284 (Bool) Bool)
(declare-fun var157 (Bool) Bool)
(declare-fun var348 (Bool) Bool)
(declare-fun var345 (Bool) Bool)
(declare-fun var135 (Bool) Bool)
(declare-fun var136 (Bool) Bool)
(declare-fun var246 (Bool) Bool)
(declare-fun var380 (Bool) Bool)
(declare-fun var310 (Bool) Bool)
(declare-fun var326 (Bool) Bool)
(declare-fun var265 (Bool) Bool)
(declare-fun var109 (Bool) Bool)
(declare-fun var34 (Bool) Bool)
(declare-fun var39 (Bool) Bool)
(declare-fun var41 (Bool) Bool)
(declare-fun var32 (Bool) Bool)
(declare-fun var49 (Bool) Bool)
(declare-fun var46 (Bool) Bool)
(declare-fun var228 (Bool) Bool)
(declare-fun var392 (Bool) Bool)
(declare-fun var154 (Bool) Bool)
(declare-fun var57 (Bool) Bool)
(declare-fun var361 (Bool) Bool)
(declare-fun var340 (Bool) Bool)
(declare-fun var42 (Bool) Bool)
(declare-fun var153 (Bool) Bool)
(declare-fun var169 (Bool) Bool)
(declare-fun var241 (Bool) Bool)
(declare-fun var279 (Bool) Bool)
(declare-fun var256 (Bool) Bool)
(declare-fun var145 (Bool) Bool)
(declare-fun var356 (Bool) Bool)
(declare-fun var64 (Bool) Bool)
(declare-fun var350 (Bool) Bool)
(declare-fun var243 (Bool) Bool)
(declare-fun var175 (Bool) Bool)
(declare-fun var45 (Bool) Bool)
(declare-fun var74 (Bool) Bool)
(declare-fun var306 (Bool) Bool)
(declare-fun var282 (Bool) Bool)
(declare-fun var259 (Bool) Bool)
(declare-fun var182 (Bool) Bool)
(declare-fun var221 (Bool) Bool)
(declare-fun var142 (Bool) Bool)
(declare-fun var218 (Bool) Bool)
(declare-fun var155 (Bool) Bool)
(declare-fun var127 (Bool) Bool)
(declare-fun var96 (Bool) Bool)
(declare-fun var199 (Bool) Bool)
(declare-fun var78 (Bool) Bool)
(declare-fun var107 (Bool) Bool)
(declare-fun var376 (Bool) Bool)
(declare-fun var320 (Bool) Bool)
(declare-fun var188 (Bool) Bool)
(declare-fun var277 (Bool) Bool)
(declare-fun var358 (Bool) Bool)
(declare-fun var393 (Bool) Bool)
(declare-fun var248 (Bool) Bool)
(declare-fun var291 (Bool) Bool)
(declare-fun var362 (Bool) Bool)
(declare-fun var23 (Bool) Bool)
(declare-fun var40 (Bool) Bool)
(declare-fun var275 (Bool) Bool)
(declare-fun var181 (Bool) Bool)
(declare-fun var172 (Bool) Bool)
(declare-fun var301 (Bool) Bool)
(declare-fun var387 (Bool) Bool)
(declare-fun var220 (Bool) Bool)
(declare-fun var81 (Bool) Bool)
(declare-fun var270 (Bool) Bool)
(declare-fun var164 (Bool) Bool)
(declare-fun var100 (Bool) Bool)
(declare-fun var209 (Bool) Bool)
(declare-fun var271 (Bool) Bool)
(declare-fun var37 (Bool) Bool)
(declare-fun var294 (Bool) Bool)
(declare-fun var233 (Bool) Bool)
(declare-fun var97 (Bool) Bool)
(declare-fun var262 (Bool) Bool)
(declare-fun var128 (Bool) Bool)
(declare-fun var267 (Bool) Bool)
(declare-fun var249 (Bool) Bool)
(declare-fun var381 (Bool) Bool)
(declare-fun var93 (Bool) Bool)
(declare-fun var179 (Bool) Bool)
(declare-fun var152 (Bool) Bool)
(declare-fun var19 (Bool) Bool)
(declare-fun var212 (Bool) Bool)
(declare-fun var232 (Bool) Bool)
(declare-fun var289 (Bool) Bool)
(declare-fun var11 (Bool) Bool)
(declare-fun var126 (Bool) Bool)
(declare-fun var89 (Bool) Bool)
(declare-fun var224 (Bool) Bool)
(declare-fun var68 (Bool) Bool)
(declare-fun var146 (Bool) Bool)
(declare-fun var322 (Bool) Bool)
(declare-fun var253 (Bool) Bool)
(declare-fun var174 (Bool) Bool)
(declare-fun var389 (Bool) Bool)
(declare-fun var397 (Bool) Bool)
(declare-fun var201 (Bool) Bool)
(declare-fun var103 (Bool) Bool)
(declare-fun var287 (Bool) Bool)
(declare-fun var52 (Bool) Bool)
(declare-fun var304 (Bool) Bool)
(declare-fun var98 (Bool) Bool)
(declare-fun var8 (Bool) Bool)
(declare-fun var386 (Bool) Bool)
(declare-fun var149 (Bool) Bool)
(declare-fun var53 (Bool) Bool)
(declare-fun var244 (Bool) Bool)
(declare-fun var10 (Bool) Bool)
(declare-fun var302 (Bool) Bool)
(declare-fun var372 (Bool) Bool)
(declare-fun var323 (Bool) Bool)
(declare-fun var158 (Bool) Bool)
(declare-fun var258 (Bool) Bool)
(declare-fun var190 (Bool) Bool)
(declare-fun var335 (Bool) Bool)
(declare-fun var298 (Bool) Bool)
(declare-fun var353 (Bool) Bool)
(declare-fun var16 (Bool) Bool)
(declare-fun var370 (Bool) Bool)
(declare-fun var106 (Bool) Bool)
(declare-fun var390 (Bool) Bool)
(declare-fun var63 (Bool) Bool)
(declare-fun var371 (Bool) Bool)
(declare-fun var276 (Bool) Bool)
(declare-fun var333 (Bool) Bool)
(declare-fun var238 (Bool) Bool)
(declare-fun var147 (Bool) Bool)
(declare-fun var395 (Bool) Bool)
(declare-fun var366 (Bool) Bool)
(declare-fun var162 (Bool) Bool)
(declare-fun var379 (Bool) Bool)
(declare-fun var7 (Bool) Bool)
(declare-fun var75 (Bool) Bool)
(declare-fun var219 (Bool) Bool)
(declare-fun var108 (Bool) Bool)
(declare-fun var183 (Bool) Bool)
(declare-fun var4 (Bool) Bool)
(declare-fun var208 (Bool) Bool)
(declare-fun var119 (Bool) Bool)
(declare-fun var193 (Bool) Bool)
(declare-fun var231 (Bool) Bool)
(declare-fun var118 (Bool) Bool)
(declare-fun var215 (Bool) Bool)
(declare-fun var112 (Bool) Bool)
(declare-fun var269 (Bool) Bool)
(declare-fun var15 (Bool) Bool)
(declare-fun var170 (Bool) Bool)
(declare-fun var132 (Bool) Bool)
(declare-fun var226 (Bool) Bool)
(declare-fun var204 (Bool) Bool)
(declare-fun var13 (Bool) Bool)
(declare-fun var338 (Bool) Bool)
(declare-fun var138 (Bool) Bool)
(declare-fun var101 (Bool) Bool)
(declare-fun var332 (Bool) Bool)
(declare-fun var355 (Bool) Bool)
(declare-fun var330 (Bool) Bool)
(declare-fun var130 (Bool) Bool)
(declare-fun var273 (Bool) Bool)
(declare-fun var211 (Bool) Bool)
(declare-fun var283 (Bool) Bool)
(declare-fun var160 (Bool) Bool)
(declare-fun var151 (Bool) Bool)
(declare-fun var185 (Bool) Bool)
(declare-fun var85 (Bool) Bool)
(declare-fun var312 (Bool) Bool)
(declare-fun var31 (Bool) Bool)
(declare-fun var385 (Bool) Bool)
(declare-fun var297 (Bool) Bool)
(declare-fun var168 (Bool) Bool)
(declare-fun var82 (Bool) Bool)
(declare-fun var60 (Bool) Bool)
(declare-fun var80 (Bool) Bool)
(declare-fun var281 (Bool) Bool)
(declare-fun var398 (Bool) Bool)
(declare-fun var292 (Bool) Bool)
(declare-fun var346 (Bool) Bool)
(declare-fun var217 (Bool) Bool)
(declare-fun var343 (Bool) Bool)
(declare-fun var26 (Bool) Bool)
(declare-fun var197 (Bool) Bool)
(declare-fun var51 (Bool) Bool)
(declare-fun var251 (Bool) Bool)
(declare-fun var237 (Bool) Bool)
(declare-fun var311 (Bool) Bool)
(declare-fun var161 (Bool) Bool)
(declare-fun var316 (Bool) Bool)
(declare-fun var14 (Bool) Bool)
(declare-fun var117 (Bool) Bool)
(declare-fun var382 (Bool) Bool)
(declare-fun var293 (Bool) Bool)
(declare-fun var384 (Bool) Bool)
(declare-fun var342 (Bool) Bool)
(declare-fun var58 (Bool) Bool)
(declare-fun var383 (Bool) Bool)
(declare-fun var364 (Bool) Bool)
(declare-fun var18 (Bool) Bool)
(declare-fun var176 (Bool) Bool)
(declare-fun var255 (Bool) Bool)
(declare-fun var296 (Bool) Bool)
(declare-fun var257 (Bool) Bool)
(declare-fun var95 (Bool) Bool)
(declare-fun var213 (Bool) Bool)
(declare-fun var123 (Bool) Bool)
(declare-fun var254 (Bool) Bool)
(declare-fun var192 (Bool) Bool)
(declare-fun var124 (Bool) Bool)
(declare-fun var104 (Bool) Bool)
(declare-fun var140 (Bool) Bool)
(declare-fun var280 (Bool) Bool)
(declare-fun var61 (Bool) Bool)
(declare-fun var62 (Bool) Bool)
(declare-fun var166 (Bool) Bool)
(declare-fun var235 (Bool) Bool)
(declare-fun var236 (Bool) Bool)
(declare-fun var54 (Bool) Bool)
(declare-fun var240 (Bool) Bool)
(declare-fun var344 (Bool) Bool)
(declare-fun var141 (Bool) Bool)
(declare-fun var177 (Bool) Bool)
(declare-fun var173 (Bool) Bool)
(declare-fun var129 (Bool) Bool)
(declare-fun var308 (Bool) Bool)
(declare-fun var22 (Bool) Bool)
(declare-fun var186 (Bool) Bool)
(declare-fun var313 (Bool) Bool)
(declare-fun var56 (Bool) Bool)
(declare-fun var47 (Bool) Bool)
(declare-fun var178 (Bool) Bool)
(declare-fun var225 (Bool) Bool)
(declare-fun var150 (Bool) Bool)
(declare-fun var156 (Bool) Bool)
(declare-fun var30 (Bool) Bool)
(declare-fun var2 (Bool) Bool)
(declare-fun var214 (Bool) Bool)
(declare-fun var171 (Bool) Bool)
(declare-fun var318 (Bool) Bool)
(declare-fun var230 (Bool) Bool)
(declare-fun var184 (Bool) Bool)
(declare-fun var378 (Bool) Bool)
(declare-fun var90 (Bool) Bool)
(declare-fun var377 (Bool) Bool)
(declare-fun var70 (Bool) Bool)
(declare-fun var200 (Bool) Bool)
(declare-fun var102 (Bool) Bool)
(declare-fun var38 (Bool) Bool)
(declare-fun var337 (Bool) Bool)
(declare-fun var388 (Bool) Bool)
(declare-fun var87 (Bool) Bool)
(declare-fun var111 (Bool) Bool)
(declare-fun var396 (Bool) Bool)
(declare-fun var368 (Bool) Bool)
(declare-fun var399 (Bool) Bool)
(declare-fun var250 (Bool) Bool)
(declare-fun var86 (Bool) Bool)
(declare-fun var205 (Bool) Bool)
(declare-fun var347 (Bool) Bool)
(declare-fun var278 (Bool) Bool)
(declare-fun var113 (Bool) Bool)
(declare-fun var234 (Bool) Bool)
(declare-fun var365 (Bool) Bool)
(declare-fun var120 (Bool) Bool)
(declare-fun var239 (Bool) Bool)
(declare-fun var223 (Bool) Bool)
(declare-fun var114 (Bool) Bool)
(declare-fun var191 (Bool) Bool)
(declare-fun var180 (Bool) Bool)
(declare-fun var202 (Bool) Bool)
(declare-fun var203 (Bool) Bool)
(declare-fun var349 (Bool) Bool)
(declare-fun var334 (Bool) Bool)
(declare-fun var307 (Bool) Bool)
(declare-fun var263 (Bool) Bool)
(declare-fun var394 (Bool) Bool)
(declare-fun var43 (Bool) Bool)
(declare-fun var229 (Bool) Bool)
(declare-fun var94 (Bool) Bool)
(declare-fun var134 (Bool) Bool)
(declare-fun var319 (Bool) Bool)
(declare-fun var285 (Bool) Bool)
(declare-fun var133 (Bool) Bool)
(declare-fun var73 (Bool) Bool)
(declare-fun var391 (Bool) Bool)
(declare-fun var17 (Bool) Bool)
(declare-fun var354 (Bool) Bool)
(declare-fun var357 (Bool) Bool)
(declare-fun var374 (Bool) Bool)
(declare-fun var121 (Bool) Bool)
(declare-fun var375 (Bool) Bool)
(declare-fun var3 (Bool) Bool)
(declare-fun var210 (Bool) Bool)
(declare-fun var194 (Bool) Bool)
(declare-fun var242 (Bool) Bool)
(declare-fun var165 (Bool) Bool)
(declare-fun var247 (Bool) Bool)
(declare-fun var92 (Bool) Bool)
(declare-fun var139 (Bool) Bool)
(declare-fun var116 (Bool) Bool)
(declare-fun var6 (Bool) Bool)
(declare-fun var274 (Bool) Bool)
(declare-fun var110 (Bool) Bool)
(declare-fun var373 (Bool) Bool)
(declare-fun var264 (Bool) Bool)
(declare-fun var341 (Bool) Bool)
(declare-fun var286 (Bool) Bool)
(declare-fun var363 (Bool) Bool)
(declare-fun var35 (Bool) Bool)
(declare-fun var207 (Bool) Bool)
(declare-fun var88 (Bool) Bool)
(declare-fun var321 (Bool) Bool)
(declare-fun var261 (Bool) Bool)
(declare-fun var359 (Bool) Bool)
(declare-fun var317 (Bool) Bool)
(declare-fun var84 (Bool) Bool)
(declare-fun var299 (Bool) Bool)
(declare-fun var303 (Bool) Bool)
(declare-fun var29 (Bool) Bool)
(declare-fun var328 (Bool) Bool)
(declare-fun var305 (Bool) Bool)
(declare-fun var245 (Bool) Bool)
(declare-fun var144 (Bool) Bool)
(declare-fun var24 (Bool) Bool)
(declare-fun var360 (Bool) Bool)
(declare-fun var187 (Bool) Bool)
(declare-fun var36 (Bool) Bool)
(declare-fun var369 (Bool) Bool)
(declare-fun var12 (Bool) Bool)
(declare-fun var196 (Bool) Bool)
(declare-fun var222 (Bool) Bool)
(declare-fun var288 (Bool) Bool)
(declare-fun var105 (Bool) Bool)
(declare-fun var195 (Bool) Bool)
(declare-fun var336 (Bool) Bool)
(declare-fun var272 (Bool) Bool)
(declare-fun var329 (Bool) Bool)
(declare-fun var163 (Bool) Bool)
(declare-fun var325 (Bool) Bool)
(declare-fun var20 (Bool) Bool)
(declare-fun var266 (Bool) Bool)
(declare-fun var27 (Bool) Bool)
(declare-fun var227 (Bool) Bool)
(declare-fun var324 (Bool) Bool)
(declare-fun var327 (Bool) Bool)
(declare-fun var50 (Bool) Bool)
(declare-fun var290 (Bool) Bool)
(declare-fun var331 (Bool) Bool)
(declare-fun var122 (Bool) Bool)
(declare-fun var309 (Bool) Bool)
(declare-fun var99 (Bool) Bool)
(declare-fun var400 (Bool) Bool)
(declare-fun var268 (Bool) Bool)
(declare-fun var295 (Bool) Bool)
(declare-fun var79 (Bool) Bool)
(declare-fun var66 (Bool) Bool)
(declare-fun var125 (Bool) Bool)
(declare-fun var55 (Bool) Bool)
(declare-fun var143 (Bool) Bool)
(declare-fun GTE (Bool Bool) Bool)
(define-fun implies ((p Bool)(q Bool)) Bool (or (not p) q))

(assert (forall ((x Bool)) (not(or (var1 x) (not(var148 x))))))
(assert (forall ((x Bool)) (not(or (not(var206 x)) (not(var9 x))))))
(assert (forall ((x Bool)) (not(or (not(var300 x)) (var314 x)))))
(assert (forall ((x Bool)) (not(or (var216 x) (not(var159 x))))))
(assert (forall ((x Bool)) (not(or (var25 x) (not(var65 x))))))
(assert (forall ((x Bool)) (not(or (var137 x) (var91 x)))))
(assert (forall ((x Bool)) (not(or (var77 x) (var352 x)))))
(assert (forall ((x Bool)) (not(or (not(var260 x)) (not(var167 x))))))
(assert (forall ((x Bool)) (not(or (var72 x) (not(var48 x))))))
(assert (forall ((x Bool)) (not(or (not(var189 x)) (var339 x)))))
(assert (forall ((x Bool)) (not(or (var71 x) (not(var115 x))))))
(assert (forall ((x Bool)) (not(or (var252 x) (not(var367 x))))))
(assert (forall ((x Bool)) (not(or (var131 x) (not(var44 x))))))
(assert (forall ((x Bool)) (not(or (not(var67 x)) (var33 x)))))
(assert (forall ((x Bool)) (not(or (not(var76 x)) (var351 x)))))
(assert (forall ((x Bool)) (not(or (var28 x) (var5 x)))))
(assert (forall ((x Bool)) (not(or (not(var315 x)) (not(var21 x))))))
(assert (forall ((x Bool)) (not(or (not(var69 x)) (not(var59 x))))))
(assert (forall ((x Bool)) (not(or (not(var198 x)) (var83 x)))))
(assert (forall ((x Bool)) (not(or (var284 x) (var157 x)))))
(assert (forall ((x Bool)) (not(or (var348 x) (var345 x)))))
(assert (forall ((x Bool)) (not(or (not(var135 x)) (var136 x)))))
(assert (forall ((x Bool)) (not(or (not(var246 x)) (var380 x)))))
(assert (forall ((x Bool)) (not(or (not(var310 x)) (var326 x)))))
(assert (forall ((x Bool)) (not(or (not(var265 x)) (not(var109 x))))))
(assert (forall ((x Bool)) (not(or (var34 x) (var39 x)))))
(assert (forall ((x Bool)) (not(or (var41 x) (not(var32 x))))))
(assert (forall ((x Bool)) (not(or (not(var49 x)) (var46 x)))))
(assert (forall ((x Bool)) (not(or (var228 x) (not(var392 x))))))
(assert (forall ((x Bool)) (not(or (not(var154 x)) (not(var57 x))))))
(assert (forall ((x Bool)) (not(or (var361 x) (not(var340 x))))))
(assert (forall ((x Bool)) (not(or (not(var42 x)) (not(var153 x))))))
(assert (forall ((x Bool)) (not(or (var169 x) (var241 x)))))
(assert (forall ((x Bool)) (not(or (not(var279 x)) (not(var256 x))))))
(assert (forall ((x Bool)) (not(or (not(var145 x)) (var356 x)))))
(assert (forall ((x Bool)) (not(or (not(var64 x)) (var350 x)))))
(assert (forall ((x Bool)) (not(or (not(var243 x)) (var175 x)))))
(assert (forall ((x Bool)) (not(or (var45 x) (not(var74 x))))))
(assert (forall ((x Bool)) (not(or (var306 x) (not(var282 x))))))
(assert (forall ((x Bool)) (not(or (not(var259 x)) (var182 x)))))
(assert (forall ((x Bool)) (not(or (var221 x) (var142 x)))))
(assert (forall ((x Bool)) (not(or (var218 x) (not(var155 x))))))
(assert (forall ((x Bool)) (not(or (var127 x) (not(var96 x))))))
(assert (forall ((x Bool)) (not(or (not(var199 x)) (var78 x)))))
(assert (forall ((x Bool)) (not(or (not(var107 x)) (var376 x)))))
(assert (forall ((x Bool)) (not(or (var320 x) (not(var188 x))))))
(assert (forall ((x Bool)) (not(or (var277 x) (var358 x)))))
(assert (forall ((x Bool)) (not(or (var393 x) (not(var248 x))))))
(assert (forall ((x Bool)) (not(or (var291 x) (not(var362 x))))))
(assert (forall ((x Bool)) (not(or (var23 x) (not(var40 x))))))
(assert (forall ((x Bool)) (not(or (not(var275 x)) (not(var181 x))))))
(assert (forall ((x Bool)) (not(or (var172 x) (var301 x)))))
(assert (forall ((x Bool)) (not(or (var387 x) (var220 x)))))
(assert (forall ((x Bool)) (not(or (var81 x) (not(var270 x))))))
(assert (forall ((x Bool)) (not(or (var164 x) (not(var100 x))))))
(assert (forall ((x Bool)) (not(or (not(var209 x)) (var271 x)))))
(assert (forall ((x Bool)) (not(or (not(var37 x)) (var294 x)))))
(assert (forall ((x Bool)) (not(or (var233 x) (not(var97 x))))))
(assert (forall ((x Bool)) (not(or (var262 x) (var128 x)))))
(assert (forall ((x Bool)) (not(or (var267 x) (not(var249 x))))))
(assert (forall ((x Bool)) (not(or (not(var381 x)) (not(var93 x))))))
(assert (forall ((x Bool)) (not(or (not(var179 x)) (var152 x)))))
(assert (forall ((x Bool)) (not(or (var19 x) (var212 x)))))
(assert (forall ((x Bool)) (not(or (not(var232 x)) (var289 x)))))
(assert (forall ((x Bool)) (not(or (var11 x) (not(var126 x))))))
(assert (forall ((x Bool)) (not(or (not(var89 x)) (not(var224 x))))))
(assert (forall ((x Bool)) (not(or (not(var68 x)) (var146 x)))))
(assert (forall ((x Bool)) (not(or (not(var322 x)) (not(var253 x))))))
(assert (forall ((x Bool)) (not(or (var174 x) (not(var389 x))))))
(assert (forall ((x Bool)) (not(or (var397 x) (not(var201 x))))))
(assert (forall ((x Bool)) (not(or (var103 x) (var287 x)))))
(assert (forall ((x Bool)) (not(or (not(var52 x)) (var304 x)))))
(assert (forall ((x Bool)) (not(or (not(var98 x)) (not(var8 x))))))
(assert (forall ((x Bool)) (not(or (not(var386 x)) (var149 x)))))
(assert (forall ((x Bool)) (not(or (not(var53 x)) (not(var244 x))))))
(assert (forall ((x Bool)) (not(or (var10 x) (var302 x)))))
(assert (forall ((x Bool)) (not(or (not(var372 x)) (not(var323 x))))))
(assert (forall ((x Bool)) (not(or (var158 x) (var258 x)))))
(assert (forall ((x Bool)) (not(or (var190 x) (var335 x)))))
(assert (forall ((x Bool)) (not(or (var298 x) (not(var353 x))))))
(assert (forall ((x Bool)) (not(or (var16 x) (not(var370 x))))))
(assert (forall ((x Bool)) (not(or (not(var106 x)) (var390 x)))))
(assert (forall ((x Bool)) (not(or (not(var63 x)) (var371 x)))))
(assert (forall ((x Bool)) (not(or (var276 x) (not(var333 x))))))
(assert (forall ((x Bool)) (not(or (var238 x) (not(var147 x))))))
(assert (forall ((x Bool)) (not(or (not(var395 x)) (var366 x)))))
(assert (forall ((x Bool)) (not(or (not(var162 x)) (var379 x)))))
(assert (forall ((x Bool)) (not(or (not(var7 x)) (var75 x)))))
(assert (forall ((x Bool)) (not(or (not(var219 x)) (not(var108 x))))))
(assert (forall ((x Bool)) (not(or (var183 x) (not(var4 x))))))
(assert (forall ((x Bool)) (not(or (var208 x) (not(var119 x))))))
(assert (forall ((x Bool)) (not(or (not(var193 x)) (not(var231 x))))))
(assert (forall ((x Bool)) (not(or (var118 x) (not(var215 x))))))
(assert (forall ((x Bool)) (not(or (var112 x) (var269 x)))))
(assert (forall ((x Bool)) (not(or (var15 x) (var170 x)))))
(assert (forall ((x Bool)) (not(or (var132 x) (var226 x)))))
(assert (forall ((x Bool)) (not(or (var204 x) (not(var13 x))))))
(assert (forall ((x Bool)) (not(or (var338 x) (not(var138 x))))))
(assert (forall ((x Bool)) (not(or (not(var101 x)) (var332 x)))))
(assert (forall ((x Bool)) (not(or (not(var355 x)) (not(var330 x))))))
(assert (forall ((x Bool))  (exists ((x1 Bool)) (and(GTE x x1)  (implies (not(var130 x1)) (var273 x))))))
(assert (forall ((x Bool))  (exists ((x1 Bool)) (and(GTE x x1)  (implies (var211 x1) (var283 x))))))
(assert (forall ((x Bool))  (exists ((x1 Bool)) (and(GTE x x1)  (implies (not(var160 x1)) (not(var151 x)))))))
(assert (forall ((x Bool))  (exists ((x1 Bool)) (and(GTE x x1)  (implies (var185 x1) (var85 x))))))
(assert (forall ((x Bool))  (exists ((x1 Bool)) (and(GTE x x1)  (implies (var312 x1) (var31 x))))))
(assert (forall ((x Bool))  (exists ((x1 Bool)) (and(GTE x x1)  (implies (var385 x1) (not(var297 x)))))))
(assert (forall ((x Bool))  (exists ((x1 Bool)) (and(GTE x x1)  (implies (not(var168 x1)) (not(var82 x)))))))
(assert (forall ((x Bool))  (exists ((x1 Bool)) (and(GTE x x1)  (implies (not(var60 x1)) (var80 x))))))
(assert (forall ((x Bool))  (exists ((x1 Bool)) (and(GTE x x1)  (implies (not(var281 x1)) (var398 x))))))
(assert (forall ((x Bool))  (exists ((x1 Bool)) (and(GTE x x1)  (implies (var292 x1) (not(var346 x)))))))
(assert (forall ((x Bool))  (exists ((x1 Bool)) (and(GTE x x1)  (implies (var217 x1) (var343 x))))))
(assert (forall ((x Bool))  (exists ((x1 Bool)) (and(GTE x x1)  (implies (not(var26 x1)) (not(var197 x)))))))
(assert (forall ((x Bool))  (exists ((x1 Bool)) (and(GTE x x1)  (implies (var51 x1) (not(var251 x)))))))
(assert (forall ((x Bool))  (exists ((x1 Bool)) (and(GTE x x1)  (implies (var237 x1) (not(var311 x)))))))
(assert (forall ((x Bool))  (exists ((x1 Bool)) (and(GTE x x1)  (implies (var161 x1) (not(var316 x)))))))
(assert (forall ((x Bool))  (exists ((x1 Bool)) (and(GTE x x1)  (implies (not(var14 x1)) (var117 x))))))
(assert (forall ((x Bool))  (exists ((x1 Bool)) (and(GTE x x1)  (implies (var382 x1) (not(var293 x)))))))
(assert (forall ((x Bool))  (exists ((x1 Bool)) (and(GTE x x1)  (implies (var384 x1) (var342 x))))))
(assert (forall ((x Bool))  (exists ((x1 Bool)) (and(GTE x x1)  (implies (not(var58 x1)) (not(var383 x)))))))
(assert (forall ((x Bool))  (exists ((x1 Bool)) (and(GTE x x1)  (implies (var364 x1) (not(var18 x)))))))
(assert (forall ((x Bool))  (exists ((x1 Bool)) (and(GTE x x1)  (implies (var176 x1) (var255 x))))))
(assert (forall ((x Bool))  (exists ((x1 Bool)) (and(GTE x x1)  (implies (var296 x1) (var257 x))))))
(assert (forall ((x Bool))  (exists ((x1 Bool)) (and(GTE x x1)  (implies (not(var95 x1)) (not(var213 x)))))))
(assert (forall ((x Bool))  (exists ((x1 Bool)) (and(GTE x x1)  (implies (not(var123 x1)) (not(var254 x)))))))
(assert (forall ((x Bool))  (exists ((x1 Bool)) (and(GTE x x1)  (implies (not(var192 x1)) (not(var124 x)))))))
(assert (forall ((x Bool))  (exists ((x1 Bool)) (and(GTE x x1)  (implies (not(var104 x1)) (var140 x))))))
(assert (forall ((x Bool))  (exists ((x1 Bool)) (and(GTE x x1)  (implies (not(var280 x1)) (not(var61 x)))))))
(assert (forall ((x Bool))  (exists ((x1 Bool)) (and(GTE x x1)  (implies (not(var62 x1)) (var166 x))))))
(assert (forall ((x Bool))  (exists ((x1 Bool)) (and(GTE x x1)  (implies (var235 x1) (not(var236 x)))))))
(assert (forall ((x Bool))  (exists ((x1 Bool)) (and(GTE x x1)  (implies (var54 x1) (var240 x))))))
(assert (forall ((x Bool))  (exists ((x1 Bool)) (and(GTE x x1)  (implies (not(var344 x1)) (not(var141 x)))))))
(assert (forall ((x Bool))  (exists ((x1 Bool)) (and(GTE x x1)  (implies (var177 x1) (not(var173 x)))))))
(assert (forall ((x Bool))  (exists ((x1 Bool)) (and(GTE x x1)  (implies (var129 x1) (var308 x))))))
(assert (forall ((x Bool))  (exists ((x1 Bool)) (and(GTE x x1)  (implies (not(var22 x1)) (var186 x))))))
(assert (forall ((x Bool))  (exists ((x1 Bool)) (and(GTE x x1)  (implies (not(var313 x1)) (not(var56 x)))))))
(assert (forall ((x Bool))  (exists ((x1 Bool)) (and(GTE x x1)  (implies (var47 x1) (var178 x))))))
(assert (forall ((x Bool))  (exists ((x1 Bool)) (and(GTE x x1)  (implies (var225 x1) (not(var150 x)))))))
(assert (forall ((x Bool))  (exists ((x1 Bool)) (and(GTE x x1)  (implies (var156 x1) (not(var30 x)))))))
(assert (forall ((x Bool))  (exists ((x1 Bool)) (and(GTE x x1)  (implies (not(var2 x1)) (not(var214 x)))))))
(assert (forall ((x Bool))  (exists ((x1 Bool)) (and(GTE x x1)  (implies (not(var171 x1)) (not(var318 x)))))))
(assert (forall ((x Bool))  (exists ((x1 Bool)) (and(GTE x x1)  (implies (not(var230 x1)) (var184 x))))))
(assert (forall ((x Bool))  (exists ((x1 Bool)) (and(GTE x x1)  (implies (not(var378 x1)) (not(var90 x)))))))
(assert (forall ((x Bool))  (exists ((x1 Bool)) (and(GTE x x1)  (implies (not(var377 x1)) (var70 x))))))
(assert (forall ((x Bool))  (exists ((x1 Bool)) (and(GTE x x1)  (implies (var200 x1) (not(var102 x)))))))
(assert (forall ((x Bool))  (exists ((x1 Bool)) (and(GTE x x1)  (implies (not(var38 x1)) (var337 x))))))
(assert (forall ((x Bool))  (exists ((x1 Bool)) (and(GTE x x1)  (implies (var388 x1) (not(var87 x)))))))
(assert (forall ((x Bool))  (exists ((x1 Bool)) (and(GTE x x1)  (implies (not(var111 x1)) (var396 x))))))
(assert (forall ((x Bool))  (exists ((x1 Bool)) (and(GTE x x1)  (implies (not(var368 x1)) (not(var399 x)))))))
(assert (forall ((x Bool))  (exists ((x1 Bool)) (and(GTE x x1)  (implies (not(var250 x1)) (not(var86 x)))))))
(assert (forall ((x Bool))  (exists ((x1 Bool)) (and(GTE x x1)  (implies (var205 x1) (var347 x))))))
(assert (forall ((x Bool))  (exists ((x1 Bool)) (and(GTE x x1)  (implies (var278 x1) (not(var113 x)))))))
(assert (forall ((x Bool))  (exists ((x1 Bool)) (and(GTE x x1)  (implies (not(var234 x1)) (var365 x))))))
(assert (forall ((x Bool))  (exists ((x1 Bool)) (and(GTE x x1)  (implies (not(var120 x1)) (not(var239 x)))))))
(assert (forall ((x Bool))  (exists ((x1 Bool)) (and(GTE x x1)  (implies (var223 x1) (not(var114 x)))))))
(assert (forall ((x Bool))  (exists ((x1 Bool)) (and(GTE x x1)  (implies (not(var191 x1)) (not(var180 x)))))))
(assert (forall ((x Bool))  (exists ((x1 Bool)) (and(GTE x x1)  (implies (var202 x1) (not(var203 x)))))))
(assert (forall ((x Bool))  (exists ((x1 Bool)) (and(GTE x x1)  (implies (not(var349 x1)) (not(var334 x)))))))
(assert (forall ((x Bool))  (exists ((x1 Bool)) (and(GTE x x1)  (implies (var307 x1) (var263 x))))))
(assert (forall ((x Bool))  (exists ((x1 Bool)) (and(GTE x x1)  (implies (var394 x1) (not(var43 x)))))))
(assert (forall ((x Bool))  (exists ((x1 Bool)) (and(GTE x x1)  (implies (not(var229 x1)) (not(var94 x)))))))
(assert (forall ((x Bool))  (exists ((x1 Bool)) (and(GTE x x1)  (implies (var134 x1) (var319 x))))))
(assert (forall ((x Bool))  (exists ((x1 Bool)) (and(GTE x x1)  (implies (not(var285 x1)) (var133 x))))))
(assert (forall ((x Bool))  (exists ((x1 Bool)) (and(GTE x x1)  (implies (not(var73 x1)) (not(var391 x)))))))
(assert (forall ((x Bool))  (exists ((x1 Bool)) (and(GTE x x1)  (implies (var17 x1) (not(var354 x)))))))
(assert (forall ((x Bool))  (exists ((x1 Bool)) (and(GTE x x1)  (implies (var357 x1) (not(var374 x)))))))
(assert (forall ((x Bool))  (exists ((x1 Bool)) (and(GTE x x1)  (implies (not(var121 x1)) (not(var375 x)))))))
(assert (forall ((x Bool))  (exists ((x1 Bool)) (and(GTE x x1)  (implies (not(var3 x1)) (not(var210 x)))))))
(assert (forall ((x Bool))  (exists ((x1 Bool)) (and(GTE x x1)  (implies (not(var194 x1)) (var242 x))))))
(assert (forall ((x Bool))  (exists ((x1 Bool)) (and(GTE x x1)  (implies (var165 x1) (not(var247 x)))))))
(assert (forall ((x Bool))  (exists ((x1 Bool)) (and(GTE x x1)  (implies (not(var92 x1)) (var139 x))))))
(assert (forall ((x Bool))  (exists ((x1 Bool)) (and(GTE x x1)  (implies (var116 x1) (not(var6 x)))))))
(assert (forall ((x Bool))  (exists ((x1 Bool)) (and(GTE x x1)  (implies (var274 x1) (not(var110 x)))))))
(assert (forall ((x Bool))  (exists ((x1 Bool)) (and(GTE x x1)  (implies (not(var373 x1)) (var264 x))))))
(assert (forall ((x Bool))  (exists ((x1 Bool)) (and(GTE x x1)  (implies (not(var341 x1)) (var286 x))))))
(assert (forall ((x Bool))  (exists ((x1 Bool)) (and(GTE x x1)  (implies (not(var363 x1)) (not(var35 x)))))))
(assert (forall ((x Bool))  (exists ((x1 Bool)) (and(GTE x x1)  (implies (not(var207 x1)) (not(var88 x)))))))
(assert (forall ((x Bool))  (exists ((x1 Bool)) (and(GTE x x1)  (implies (var321 x1) (var261 x))))))
(assert (forall ((x Bool))  (exists ((x1 Bool)) (and(GTE x x1)  (implies (var359 x1) (var317 x))))))
(assert (forall ((x Bool))  (exists ((x1 Bool)) (and(GTE x x1)  (implies (not(var84 x1)) (var299 x))))))
(assert (forall ((x Bool))  (exists ((x1 Bool)) (and(GTE x x1)  (implies (var303 x1) (var29 x))))))
(assert (forall ((x Bool))  (exists ((x1 Bool)) (and(GTE x x1)  (implies (not(var328 x1)) (var305 x))))))
(assert (forall ((x Bool))  (exists ((x1 Bool)) (and(GTE x x1)  (implies (not(var245 x1)) (var144 x))))))
(assert (forall ((x Bool))  (exists ((x1 Bool)) (and(GTE x x1)  (implies (not(var24 x1)) (var360 x))))))
(assert (forall ((x Bool))  (exists ((x1 Bool)) (and(GTE x x1)  (implies (var187 x1) (not(var36 x)))))))
(assert (forall ((x Bool))  (exists ((x1 Bool)) (and(GTE x x1)  (implies (not(var369 x1)) (var12 x))))))
(assert (forall ((x Bool))  (exists ((x1 Bool)) (and(GTE x x1)  (implies (var196 x1) (not(var222 x)))))))
(assert (forall ((x Bool))  (exists ((x1 Bool)) (and(GTE x x1)  (implies (var288 x1) (var105 x))))))
(assert (forall ((x Bool))  (exists ((x1 Bool)) (and(GTE x x1)  (implies (var195 x1) (var336 x))))))
(assert (forall ((x Bool))  (exists ((x1 Bool)) (and(GTE x x1)  (implies (not(var272 x1)) (var329 x))))))
(assert (forall ((x Bool))  (exists ((x1 Bool)) (and(GTE x x1)  (implies (var163 x1) (var325 x))))))
(assert (forall ((x Bool))  (exists ((x1 Bool)) (and(GTE x x1)  (implies (var20 x1) (not(var266 x)))))))
(assert (forall ((x Bool))  (exists ((x1 Bool)) (and(GTE x x1)  (implies (var27 x1) (var227 x))))))
(assert (forall ((x Bool))  (exists ((x1 Bool)) (and(GTE x x1)  (implies (not(var324 x1)) (not(var327 x)))))))
(assert (forall ((x Bool))  (exists ((x1 Bool)) (and(GTE x x1)  (implies (not(var50 x1)) (var290 x))))))
(assert (forall ((x Bool))  (exists ((x1 Bool)) (and(GTE x x1)  (implies (not(var331 x1)) (not(var122 x)))))))
(assert (forall ((x Bool))  (exists ((x1 Bool)) (and(GTE x x1)  (implies (var309 x1) (var99 x))))))
(assert (forall ((x Bool))  (exists ((x1 Bool)) (and(GTE x x1)  (implies (not(var400 x1)) (var268 x))))))
(assert (forall ((x Bool))  (exists ((x1 Bool)) (and(GTE x x1)  (implies (not(var295 x1)) (not(var79 x)))))))
(assert (forall ((x Bool))  (exists ((x1 Bool)) (and(GTE x x1)  (implies (not(var66 x1)) (not(var125 x)))))))
(assert (forall ((x Bool))  (exists ((x1 Bool)) (and(GTE x x1)  (implies (not(var55 x1)) (not(var143 x)))))))
(check-sat)
(get-model)
